p cnf 13 24
-13 -9 7 0
-13 -7 -1 0
-13 6 1 0
13 4 -2 0
-13 -4 -1 0
12 -11 1 0
12 8 5 0
12 -8 -1 0
-12 -6 4 0
-12 6 4 0
-11 10 -2 0
-11 -7 3 0
-10 -9 -5 0
-10 8 7 0
-10 -8 3 0
9 -8 -6 0
9 -7 6 0
-9 -7 4 0
9 -6 3 0
-9 3 -2 0
9 -3 1 0
9 2 -1 0
-7 4 -2 0
7 -4 2 0
